NAME          
ROWS
 N  OBJ
 L  c1
 L  c2
 L  c3
COLUMNS
    MARKER    'MARKER'                 'INTORG'
    x[1]      c1        485
    x[1]      c2        750
    x[1]      c3        604
    x[1]      OBJ       -604
    x[2]      c1        793
    x[2]      c2        719
    x[2]      c3        306
    x[2]      OBJ       -665
    x[3]      c1        555
    x[3]      c2        935
    x[3]      c3        307
    x[3]      OBJ       -793
    x[4]      c1        25
    x[4]      c2        335
    x[4]      c3        915
    x[4]      OBJ       -846
    x[5]      c1        562
    x[5]      c2        559
    x[5]      c3        47
    x[5]      OBJ       -106
    x[6]      c1        873
    x[6]      c2        996
    x[6]      c3        536
    x[6]      OBJ       -194
    x[7]      c1        578
    x[7]      c2        171
    x[7]      c3        247
    x[7]      OBJ       -855
    x[8]      c1        488
    x[8]      c2        273
    x[8]      c3        92
    x[8]      OBJ       -297
    x[9]      c1        3
    x[9]      c2        119
    x[9]      c3        697
    x[9]      OBJ       -529
    x[10]     c1        200
    x[10]     c2        208
    x[10]     c3        592
    x[10]     OBJ       -191
    x[11]     c1        858
    x[11]     c2        732
    x[11]     c3        815
    x[11]     OBJ       -145
    x[12]     c1        987
    x[12]     c2        627
    x[12]     c3        19
    x[12]     OBJ       -285
    x[13]     c1        350
    x[13]     c2        982
    x[13]     c3        477
    x[13]     OBJ       -871
    x[14]     c1        14
    x[14]     c2        798
    x[14]     c3        961
    x[14]     OBJ       -777
    x[15]     c1        268
    x[15]     c2        411
    x[15]     c3        968
    x[15]     OBJ       -320
    x[16]     c1        196
    x[16]     c2        166
    x[16]     c3        632
    x[16]     OBJ       -641
    x[17]     c1        74
    x[17]     c2        914
    x[17]     c3        591
    x[17]     OBJ       -785
    x[18]     c1        443
    x[18]     c2        628
    x[18]     c3        309
    x[18]     OBJ       -295
    x[19]     c1        579
    x[19]     c2        435
    x[19]     c3        900
    x[19]     OBJ       -524
    x[20]     c1        341
    x[20]     c2        628
    x[20]     c3        164
    x[20]     OBJ       -795
    x[21]     c1        117
    x[21]     c2        156
    x[21]     c3        390
    x[21]     OBJ       -979
    x[22]     c1        818
    x[22]     c2        575
    x[22]     c3        970
    x[22]     OBJ       -990
    x[23]     c1        419
    x[23]     c2        497
    x[23]     c3        147
    x[23]     OBJ       -625
    x[24]     c1        616
    x[24]     c2        117
    x[24]     c3        923
    x[24]     OBJ       -117
    x[25]     c1        600
    x[25]     c2        597
    x[25]     c3        16
    x[25]     OBJ       -78
    x[26]     c1        449
    x[26]     c2        60
    x[26]     c3        756
    x[26]     OBJ       -55
    x[27]     c1        564
    x[27]     c2        849
    x[27]     c3        779
    x[27]     OBJ       -623
    x[28]     c1        473
    x[28]     c2        423
    x[28]     c3        917
    x[28]     OBJ       -933
    x[29]     c1        871
    x[29]     c2        204
    x[29]     c3        334
    x[29]     OBJ       -180
    x[30]     c1        693
    x[30]     c2        168
    x[30]     c3        307
    x[30]     OBJ       -458
    x[31]     c1        660
    x[31]     c2        113
    x[31]     c3        441
    x[31]     OBJ       -518
    x[32]     c1        333
    x[32]     c2        247
    x[32]     c3        656
    x[32]     OBJ       -647
    x[33]     c1        387
    x[33]     c2        666
    x[33]     c3        146
    x[33]     OBJ       -703
    x[34]     c1        135
    x[34]     c2        670
    x[34]     c3        869
    x[34]     OBJ       -594
    x[35]     c1        121
    x[35]     c2        781
    x[35]     c3        604
    x[35]     OBJ       -693
    x[36]     c1        167
    x[36]     c2        4
    x[36]     c3        747
    x[36]     OBJ       -931
    x[37]     c1        998
    x[37]     c2        722
    x[37]     c3        114
    x[37]     OBJ       -181
    x[38]     c1        864
    x[38]     c2        4
    x[38]     c3        489
    x[38]     OBJ       -400
    x[39]     c1        938
    x[39]     c2        153
    x[39]     c3        1
    x[39]     OBJ       -443
    x[40]     c1        822
    x[40]     c2        982
    x[40]     c3        927
    x[40]     OBJ       -71
    x[41]     c1        663
    x[41]     c2        157
    x[41]     c3        955
    x[41]     OBJ       -915
    x[42]     c1        211
    x[42]     c2        760
    x[42]     c3        686
    x[42]     OBJ       -491
    x[43]     c1        307
    x[43]     c2        221
    x[43]     c3        698
    x[43]     OBJ       -489
    x[44]     c1        920
    x[44]     c2        38
    x[44]     c3        483
    x[44]     OBJ       -192
    x[45]     c1        755
    x[45]     c2        494
    x[45]     c3        933
    x[45]     OBJ       -958
    x[46]     c1        801
    x[46]     c2        102
    x[46]     c3        92
    x[46]     OBJ       -90
    x[47]     c1        416
    x[47]     c2        639
    x[47]     c3        677
    x[47]     OBJ       -597
    x[48]     c1        885
    x[48]     c2        112
    x[48]     c3        648
    x[48]     OBJ       -476
    x[49]     c1        753
    x[49]     c2        222
    x[49]     c3        300
    x[49]     OBJ       -402
    x[50]     c1        22
    x[50]     c2        896
    x[50]     c3        497
    x[50]     OBJ       -602
RHS
    rhs       c1        12725
    rhs       c2        11508
    rhs       c3        13340
RANGES
BOUNDS
 BV bounds    x[1]
 BV bounds    x[2]
 BV bounds    x[3]
 BV bounds    x[4]
 BV bounds    x[5]
 BV bounds    x[6]
 BV bounds    x[7]
 BV bounds    x[8]
 BV bounds    x[9]
 BV bounds    x[10]
 BV bounds    x[11]
 BV bounds    x[12]
 BV bounds    x[13]
 BV bounds    x[14]
 BV bounds    x[15]
 BV bounds    x[16]
 BV bounds    x[17]
 BV bounds    x[18]
 BV bounds    x[19]
 BV bounds    x[20]
 BV bounds    x[21]
 BV bounds    x[22]
 BV bounds    x[23]
 BV bounds    x[24]
 BV bounds    x[25]
 BV bounds    x[26]
 BV bounds    x[27]
 BV bounds    x[28]
 BV bounds    x[29]
 BV bounds    x[30]
 BV bounds    x[31]
 BV bounds    x[32]
 BV bounds    x[33]
 BV bounds    x[34]
 BV bounds    x[35]
 BV bounds    x[36]
 BV bounds    x[37]
 BV bounds    x[38]
 BV bounds    x[39]
 BV bounds    x[40]
 BV bounds    x[41]
 BV bounds    x[42]
 BV bounds    x[43]
 BV bounds    x[44]
 BV bounds    x[45]
 BV bounds    x[46]
 BV bounds    x[47]
 BV bounds    x[48]
 BV bounds    x[49]
 BV bounds    x[50]
ENDATA
